p cnf 12 50 
6 -4 11 0
1 12 4 0
-2 7 4 0
-8 -6 7 0
12 7 -4 0
1 11 -5 0
4 -3 7 0
-11 8 4 0
-8 3 12 0
-12 -3 5 0
10 -5 -2 0
7 -3 -4 0
4 -9 8 0
1 3 -9 0
3 -1 -12 0
6 12 8 0
9 -6 2 0
10 -2 -12 0
8 1 2 0
3 -12 11 0
-11 8 -3 0
6 -9 5 0
5 12 9 0
-12 8 -4 0
-12 -1 -7 0
1 -7 -10 0
-2 12 4 0
-11 -9 3 0
5 10 3 0
-7 -5 -3 0
-9 -12 -7 0
10 -7 6 0
8 -9 -5 0
-2 12 -8 0
-9 7 -5 0
5 10 -8 0
10 -8 -1 0
10 4 -12 0
-9 4 1 0
9 -8 -3 0
12 -8 5 0
-7 6 -12 0
-3 -1 -9 0
-7 5 1 0
5 -12 -2 0
3 -8 -7 0
-12 -9 -6 0
-6 12 2 0
-9 -2 7 0
8 7 -6 0
